(set-info :origin "driver benchmark extracted from Microsoft SDV")
(set-logic HORN)
(declare-fun Proc4 (Int Bool Int Int) Bool)
(declare-fun Proc56 (Int Bool) Bool)
(declare-fun Proc61 (Int Bool Int Bool Int) Bool)
(declare-fun Proc10
             (Int Bool Int Int Int Int Int Int Int Int Int Int Int Int)
             Bool)
(declare-fun Proc24 (Int Bool Int) Bool)
(declare-fun Proc15 (Int Bool Int Int Int Int) Bool)
(declare-fun Proc13 (Int Bool Int Int Int) Bool)
(declare-fun Proc36 (Int Bool Int) Bool)
(declare-fun Proc37 (Int Bool Int) Bool)
(declare-fun Proc31 (Int Bool) Bool)
(declare-fun Proc42 (Int Bool Int) Bool)
(declare-fun Proc3 (Int Bool Int Int Int) Bool)
(declare-fun Proc57 (Int Bool) Bool)
(declare-fun Proc8 (Int Bool Int Int Int) Bool)
(declare-fun Proc59 (Int Bool Int) Bool)
(declare-fun Proc1 (Int Bool Int Int Int Int) Bool)
(declare-fun Proc38 (Int Bool Int) Bool)
(declare-fun Proc39 (Int Bool Int) Bool)
(declare-fun Proc26 (Int Bool Int) Bool)
(declare-fun Proc33 (Int Bool Int) Bool)
(declare-fun Proc0 (Int Bool) Bool)
(declare-fun Proc5 (Int Bool Int Int Int Int) Bool)
(declare-fun Proc54 (Int Bool Int) Bool)
(declare-fun Proc25 (Int Bool Int Int Int) Bool)
(declare-fun Proc14 (Int Bool Int Int Int Int) Bool)
(declare-fun Proc27 (Int Bool Int Int Int) Bool)
(declare-fun Proc48 (Int Bool) Bool)
(declare-fun Proc28 (Int Bool) Bool)
(declare-fun Proc34 (Int Bool Int Bool Int) Bool)
(declare-fun Proc44 (Int Bool Int) Bool)
(declare-fun Proc17 (Int Bool Int Int Int Int) Bool)
(declare-fun Proc40 (Int Bool Int) Bool)
(declare-fun Proc7 (Int Bool Int Int Int Int) Bool)
(declare-fun Proc18 (Int Bool Int Int Int) Bool)
(declare-fun Proc29 (Int Bool) Bool)
(declare-fun Proc35 (Int Bool Int) Bool)
(declare-fun Proc43 (Int Bool Int) Bool)
(declare-fun Proc11 (Int Bool Int Int Int) Bool)
(declare-fun Proc32 (Int Bool Int) Bool)
(declare-fun Proc60 (Int Bool) Bool)
(declare-fun Proc58 (Int Bool Int Int) Bool)
(declare-fun Proc9 (Int Bool Int Int Int) Bool)
(declare-fun Proc20 (Int Bool Int Int Int) Bool)
(declare-fun Proc23 (Int Bool Int Int Int) Bool)
(declare-fun Proc46 (Int Bool Int) Bool)
(declare-fun Proc47 (Int Bool Int) Bool)
(declare-fun Proc49 (Int Bool) Bool)
(declare-fun Proc52 (Int Bool) Bool)
(declare-fun Proc50 (Int Bool Int Int Int Int) Bool)
(declare-fun Proc41 (Int Bool Int Int) Bool)
(declare-fun Proc30 (Int Bool) Bool)
(declare-fun Proc21 (Int Bool Int) Bool)
(declare-fun Proc6 (Int Bool Int Int Int) Bool)
(declare-fun Proc51 (Int Bool Int) Bool)
(declare-fun Proc22 (Int Bool Int Int) Bool)
(declare-fun Proc19 (Int Bool Int) Bool)
(declare-fun Proc45 (Int Bool Int) Bool)
(declare-fun Proc12 (Int Bool Int Int Int Int Int Int Int Int) Bool)
(declare-fun Proc55 (Int Bool Int Int Int Int) Bool)
(declare-fun Proc2 (Int Bool Int Int) Bool)
(declare-fun Proc53 (Int Bool Int Int) Bool)
(declare-fun Proc16 (Int Bool Int) Bool)
(assert (forall ((A Int) (B Int) (C Int) (D Int) (E Int) (F Bool))
  (let ((a!1 (not (or (not F) (not (Proc0 E F))))))
    (=> a!1 (Proc1 E F D C B A)))))
(assert (forall ((A Int) (B Int) (C Int) (D Int) (E Int) (F Bool))
  (let ((a!1 (not (or (not F) (not (Proc2 E F 0 D)) (not (= C 0))))))
    (=> a!1 (Proc3 E F B A C)))))
(assert (forall ((A Int) (B Int) (C Int) (D Int) (E Int) (F Bool) (G Int) (H Int))
  (let ((a!1 (or (not F) (not (Proc4 H F G E)) (not (and (= D 0) (= C E))))))
    (=> (not a!1) (Proc5 H F B A D C)))))
(assert (forall ((A Int)
         (B Int)
         (C Int)
         (D Int)
         (E Int)
         (F Bool)
         (G Int)
         (H Int)
         (I Int)
         (J Int))
  (let ((a!1 (and (not (<= H (+ 4 J))) (not (<= H I)))))
  (let ((a!2 (or (not F)
                 (not (= J I))
                 (not a!1)
                 (not (Proc6 H F J G E))
                 (not (and (= D 0) (= C E))))))
    (=> (not a!2) (Proc7 I F B A D C))))))
(assert (forall ((A Int) (B Int) (C Int) (D Int) (E Int) (F Bool))
  (let ((a!1 (not (or (not F) (not (Proc8 E F D C B)) (not (= A 0))))))
    (=> a!1 (Proc9 E F D C A)))))
(assert (forall ((A Int)
         (B Int)
         (C Int)
         (D Int)
         (E Int)
         (F Bool)
         (G Int)
         (H Int)
         (I Int))
  (let ((a!1 (not (and (not (= H 0))
                       (= G (+ 52 H))
                       (Proc10 E F G 99 H 0 D 0 0 0 1 1 1 C)))))
  (let ((a!2 (not (or (not F) (= I 0) (= H 0) a!1 (not (= B 0))))))
    (=> a!2 (Proc11 E F I A B))))))
(assert (forall ((A Int)
         (B Int)
         (C Int)
         (D Int)
         (E Int)
         (F Bool)
         (G Int)
         (H Int)
         (I Int)
         (J Int)
         (K Int))
  (let ((a!1 (and (not (<= I (+ 4 K))) (not (<= I J))))
        (a!2 (not (and (not (= E 0)) (= D (+ 8 E)) (Proc13 I F D 98 0)))))
  (let ((a!3 (or (not F)
                 (not (= K J))
                 (not a!1)
                 (not (Proc12 I F H 48 0 7 0 0 K G))
                 a!2
                 (not (and (= C G) (= B I))))))
    (=> (not a!3) (Proc14 J F H A C B))))))
(assert (forall ((A Int)
         (B Int)
         (C Int)
         (D Int)
         (E Int)
         (F Bool)
         (G Int)
         (H Int)
         (I Int)
         (J Int)
         (K Int)
         (L Int)
         (M Int)
         (N Int)
         (O Int)
         (P Int)
         (Q Int)
         (R Int)
         (S Int)
         (T Int)
         (U Int)
         (V Int))
  (let ((a!1 (and (not (<= T (+ 1 V))) (not (<= T U))))
        (a!2 (and (not (<= R (+ 1 S))) (not (<= R T))))
        (a!3 (and (not (<= P (+ 1 Q))) (not (<= P R))))
        (a!4 (and (not (<= N (+ 1 O))) (not (<= N P))))
        (a!5 (and (not (<= L (+ 1 M))) (not (<= L N)))))
  (let ((a!6 (or (not F)
                 (not (= V U))
                 (not a!1)
                 (not (= S T))
                 (not a!2)
                 (not (= Q R))
                 (not a!3)
                 (not (= O P))
                 (not a!4)
                 (not (= M N))
                 (not a!5)
                 (= K 0)
                 (= J 0)
                 (= I 0)
                 (= H 0)
                 (= G 0)
                 (= E 0)
                 (= D 0)
                 (not (and (= C 0) (= B L))))))
    (=> (not a!6) (Proc15 U F K A C B))))))
(assert (forall ((A Int) (B Int) (F Bool)) (=> F (Proc16 B F A))))
(assert (forall ((A Int) (B Int) (C Int) (D Int) (E Int) (F Bool) (G Int))
  (let ((a!1 (not (and (not (= G 0)) (= E (+ 8 G)) (Proc17 D F E G 0 C)))))
  (let ((a!2 (not (or (not F) a!1 (not (= B 1))))))
    (=> a!2 (Proc18 D F A G B))))))
(assert (forall ((A Int) (B Int) (F Bool))
  (=> (not (or (not F) (= B 0))) (Proc19 A F B))))
(assert (forall ((A Int)
         (B Int)
         (C Int)
         (D Int)
         (E Int)
         (F Bool)
         (G Int)
         (H Int)
         (I Int)
         (J Int)
         (K Int)
         (L Int)
         (M Int)
         (N Int)
         (O Int)
         (P Int)
         (Q Int))
  (let ((a!1 (not (and (= O (- 1073741670)) (= Q O))))
        (a!2 (not (and (= N (- 1073741811)) (= Q N)))))
  (let ((a!3 (and (or (not (= Q 0)) (not (= P Q)))
                  (or a!1 (not (= P Q)))
                  (or a!2 (not (= P Q))))))
    (=> (not (or (not F) a!3)) (Proc10 M F L K J I H G E D C B A P))))))
(assert (forall ((A Int)
         (B Int)
         (C Int)
         (D Int)
         (E Int)
         (F Bool)
         (G Int)
         (H Int)
         (I Int)
         (J Int)
         (K Int)
         (L Int)
         (M Int)
         (N Int)
         (O Int))
  (let ((a!1 (not (and (= L (- 1073741823)) (= N L))))
        (a!2 (not (and (= K (- 1073741670)) (= N K))))
        (a!3 (not (and (= J (- 1073741771)) (= N J))))
        (a!4 (not (and (= I (- 1073741824)) (= N I)))))
  (let ((a!5 (and (or (= O 0) (not (= N 0)) (not (= M N)))
                  (or (= O 0) a!1 (not (= M N)))
                  (or (= O 0) a!2 (not (= M N)))
                  (or (= O 0) a!3 (not (= M N)))
                  (or (= O 0) a!4 (not (= M N))))))
    (=> (not (or (not F) a!5)) (Proc12 H F G E D C B A O M))))))
(assert (forall ((A Int) (B Int) (C Int) (D Int) (F Bool))
  (let ((a!1 (not (or (not F) (= D 0) (not (= C 259))))))
    (=> a!1 (Proc20 B F A D C)))))
(assert (forall ((A Int) (B Int) (C Int) (D Int) (F Bool))
  (=> (not (or (not F) (= D 0))) (Proc13 C F D B A))))
(assert (forall ((A Int) (B Int) (C Int) (D Int) (E Int) (F Bool) (G Int))
  (let ((a!1 (and (or (not (= G 1)) (not (= E G)))
                  (or (not (= G 0)) (not (= E G))))))
    (=> (not (or (not F) a!1)) (Proc17 D F C B A E)))))
(assert (forall ((A Int) (B Int) (C Int) (F Bool))
  (let ((a!1 (not (or (not F) (not (Proc21 C F B)) (not (= A 0))))))
    (=> a!1 (Proc2 C F B A)))))
(assert (forall ((A Int) (B Int) (C Int) (D Int) (E Int) (F Bool) (G Int))
  (let ((a!1 (and (not (<= D (+ 4 G))) (not (<= D E)))))
  (let ((a!2 (or (not F)
                 (not (= G E))
                 (not a!1)
                 (not (Proc22 D F C G))
                 (not (and (= B 0) (= A D))))))
    (=> (not a!2) (Proc6 E F C B A))))))
(assert (forall ((A Int) (B Int) (C Int) (D Int) (E Int) (F Bool))
  (let ((a!1 (and (not (<= C (+ 4 E))) (not (<= C D)))))
  (let ((a!2 (or (not F)
                 (not (= E D))
                 (not a!1)
                 (not (Proc19 C F E))
                 (not (and (= B 0) (= A C))))))
    (=> (not a!2) (Proc4 D F B A))))))
(assert (forall ((A Int) (B Int) (C Int) (D Int) (E Int) (F Bool))
  (let ((a!1 (not (or (not F) (not (Proc23 E F D C B)) (not (= A B))))))
    (=> a!1 (Proc8 E F D C A)))))
(assert (forall ((A Int) (B Int) (C Int) (D Int) (E Int) (F Bool) (G Int))
  (let ((a!1 (and (not (<= D (+ 1 G))) (not (<= D E)))))
  (let ((a!2 (not (or (not F)
                      (not (= G E))
                      (not a!1)
                      (not (Proc24 D F G))
                      (not (= C D))))))
    (=> a!2 (Proc25 E F B A C))))))
(assert (forall ((A Int) (B Int) (F Bool)) (=> F (Proc24 B F A))))
(assert (forall ((A Int) (B Int) (F Bool)) (=> false (Proc26 B F A))))
(assert (forall ((A Int)
         (B Int)
         (C Int)
         (D Int)
         (E Int)
         (F Bool)
         (G Int)
         (H Int)
         (I Int))
  (let ((a!1 (and (not (<= A (+ 1 B))) (not (<= A H)))))
  (let ((a!2 (or (not (= I 0))
                 (not (= B H))
                 (not a!1)
                 (not (and (Proc26 A F B) (= D A)))
                 (not (= C D)))))
  (let ((a!3 (and (or (= I 0)
                      (not (Proc25 H F G I E))
                      (not (= D E))
                      (not (= C D)))
                  a!2)))
    (=> (not (or (not F) a!3)) (Proc27 H F G I C)))))))
(assert (forall ((A Int) (F Bool)) (=> F (Proc28 A F))))
(assert (forall ((A Int) (F Bool)) (=> F (Proc29 A F))))
(assert (forall ((A Int) (F Bool)) (=> F (Proc30 A F))))
(assert (forall ((A Int) (F Bool)) (=> F (Proc31 A F))))
(assert (forall ((A Int)
         (B Int)
         (C Int)
         (D Int)
         (E Int)
         (F Bool)
         (G Int)
         (H Int)
         (I Int)
         (W Bool)
         (X Bool)
         (Y Bool))
  (let ((a!1 (not (and (not (<= I 0)) (Proc32 I Y H))))
        (a!2 (not (and (= C E) (= W X) (= B G)))))
  (let ((a!3 (or (not (and (= E D) (not X))) a!2))
        (a!4 (or (= (not F) Y) (not (and (= E A) (= X F))) a!2)))
  (let ((a!5 (not (or (not Y)
                      a!1
                      (not (Proc31 H Y))
                      (not (Proc30 H Y))
                      (not (Proc29 H Y))
                      (not (Proc28 H Y))
                      (not (Proc33 H Y G))
                      (and a!3 a!4)))))
    (=> a!5 (Proc34 I Y C W B)))))))
(assert (forall ((A Int) (B Int) (F Bool))
  (let ((a!1 (not (or (not F) (not (= B 1))))))
    (=> a!1 (Proc35 A F B)))))
(assert (forall ((A Int) (B Int) (F Bool))
  (let ((a!1 (not (or (not F) (not (= B 0))))))
    (=> a!1 (Proc36 A F B)))))
(assert (forall ((A Int) (B Int) (F Bool))
  (let ((a!1 (not (or (not F) (not (= B 1))))))
    (=> a!1 (Proc37 A F B)))))
(assert (forall ((A Int) (B Int) (F Bool))
  (let ((a!1 (not (or (not F) (not (= B 1))))))
    (=> a!1 (Proc38 A F B)))))
(assert (forall ((A Int) (B Int) (F Bool))
  (let ((a!1 (not (or (not F) (not (= B 1))))))
    (=> a!1 (Proc39 A F B)))))
(assert (forall ((A Int) (B Int) (F Bool))
  (let ((a!1 (not (or (not F) (not (= B 0))))))
    (=> a!1 (Proc40 A F B)))))
(assert (forall ((A Int) (B Int) (C Int) (D Int) (E Int) (F Bool) (G Int))
  (let ((a!1 (and (not (<= D (+ 1 G))) (not (<= D E)))))
  (let ((a!2 (or (not F)
                 (not (= G E))
                 (not a!1)
                 (not (Proc27 D F G 0 C))
                 (not (and (= B 0) (= A C))))))
    (=> (not a!2) (Proc41 E F B A))))))
(assert (forall ((A Int) (B Int) (F Bool))
  (let ((a!1 (not (or (not F) (not (= B 1))))))
    (=> a!1 (Proc42 A F B)))))
(assert (forall ((A Int) (B Int) (F Bool))
  (let ((a!1 (not (or (not F) (not (= B 1))))))
    (=> a!1 (Proc43 A F B)))))
(assert (forall ((A Int) (B Int) (F Bool))
  (let ((a!1 (not (or (not F) (not (= B 0))))))
    (=> a!1 (Proc44 A F B)))))
(assert (forall ((A Int) (B Int) (F Bool))
  (let ((a!1 (not (or (not F) (not (= B 0))))))
    (=> a!1 (Proc45 A F B)))))
(assert (forall ((A Int) (B Int) (C Int) (F Bool))
  (let ((a!1 (or (not F) (not (= C (- 1073741823))) (not (= B C)))))
    (=> (not a!1) (Proc46 A F B)))))
(assert (forall ((A Int) (B Int) (F Bool)) (=> F (Proc21 B F A))))
(assert (forall ((A Int) (B Int) (C Int) (D Int) (E Int) (F Bool))
  (let ((a!1 (not (or (not F) (not (Proc20 E F D C B)) (not (= A B))))))
    (=> a!1 (Proc23 E F D C A)))))
(assert (forall ((A Int) (B Int) (F Bool))
  (let ((a!1 (not (or (not F) (not (= B 0))))))
    (=> a!1 (Proc47 A F B)))))
(assert (forall ((A Int) (B Int) (C Int) (F Bool))
  (=> (not (or (not F) (= C 0))) (Proc22 B F A C))))
(assert (forall ((A Int) (B Int) (C Int) (D Int) (E Int) (F Bool) (G Int) (H Int))
  (let ((a!1 (or (not F)
                 (not (Proc48 H F))
                 (not (Proc14 H F G E D C))
                 (not (Proc49 C F))
                 (not (and (= B D) (= A C))))))
    (=> (not a!1) (Proc50 H F G E B A)))))
(assert (forall ((A Int)
         (B Int)
         (C Int)
         (D Int)
         (E Int)
         (F Bool)
         (G Int)
         (H Int)
         (I Int)
         (J Int)
         (K Int)
         (L Int)
         (M Int)
         (N Int)
         (O Int)
         (P Int)
         (Q Int)
         (R Int)
         (S Int)
         (T Int)
         (U Int)
         (V Int)
         (Z Int)
         (A1 Int)
         (B1 Int)
         (C1 Int)
         (D1 Int)
         (E1 Int)
         (F1 Int)
         (G1 Int))
  (let ((a!1 (or (= E1 0)
                 (not (Proc3 F1 F D1 G1 C1))
                 (not (and (= B1 C1) (= A1 F1)))
                 (not (Proc53 A1 F B1 G1))
                 (= G1 0)
                 (not (and (= Z B1) (= V A1)))))
        (a!2 (or (= E1 0)
                 (not (Proc46 F1 F U))
                 (not (and (= B1 U) (= A1 F1)))
                 (not (Proc53 A1 F B1 G1))
                 (= G1 0)
                 (not (and (= Z B1) (= V A1)))))
        (a!3 (or (= E1 0)
                 (not (Proc7 F1 F D1 G1 T S))
                 (not (and (= B1 T) (= A1 S)))
                 (not (Proc53 A1 F B1 G1))
                 (= G1 0)
                 (not (and (= Z B1) (= V A1)))))
        (a!4 (or (= E1 0)
                 (not (Proc11 F1 F D1 G1 R))
                 (not (and (= B1 R) (= A1 F1)))
                 (not (Proc53 A1 F B1 G1))
                 (= G1 0)
                 (not (and (= Z B1) (= V A1)))))
        (a!5 (or (= E1 0)
                 (not (Proc46 F1 F Q))
                 (not (and (= B1 Q) (= A1 F1)))
                 (not (Proc53 A1 F B1 G1))
                 (= G1 0)
                 (not (and (= Z B1) (= V A1)))))
        (a!6 (or (= E1 0)
                 (not (Proc46 F1 F P))
                 (not (and (= B1 P) (= A1 F1)))
                 (not (Proc53 A1 F B1 G1))
                 (= G1 0)
                 (not (and (= Z B1) (= V A1)))))
        (a!7 (or (= E1 0)
                 (not (Proc46 F1 F O))
                 (not (and (= B1 O) (= A1 F1)))
                 (not (Proc53 A1 F B1 G1))
                 (= G1 0)
                 (not (and (= Z B1) (= V A1)))))
        (a!8 (or (not (Proc46 F1 F N))
                 (not (and (= B1 N) (= A1 F1)))
                 (not (Proc53 A1 F B1 G1))
                 (= G1 0)
                 (not (and (= Z B1) (= V A1)))))
        (a!9 (or (= E1 0)
                 (not (Proc46 F1 F M))
                 (not (and (= B1 M) (= A1 F1)))
                 (not (Proc53 A1 F B1 G1))
                 (= G1 0)
                 (not (and (= Z B1) (= V A1)))))
        (a!10 (or (= E1 0)
                  (not (Proc46 F1 F L))
                  (not (and (= B1 L) (= A1 F1)))
                  (not (Proc53 A1 F B1 G1))
                  (= G1 0)
                  (not (and (= Z B1) (= V A1)))))
        (a!11 (or (= E1 0)
                  (not (Proc46 F1 F K))
                  (not (and (= B1 K) (= A1 F1)))
                  (not (Proc53 A1 F B1 G1))
                  (= G1 0)
                  (not (and (= Z B1) (= V A1)))))
        (a!12 (or (not (Proc46 F1 F J))
                  (not (and (= B1 J) (= A1 F1)))
                  (not (Proc53 A1 F B1 G1))
                  (= G1 0)
                  (not (and (= Z B1) (= V A1)))))
        (a!13 (or (= E1 0)
                  (not (Proc46 F1 F I))
                  (not (and (= B1 I) (= A1 F1)))
                  (not (Proc53 A1 F B1 G1))
                  (= G1 0)
                  (not (and (= Z B1) (= V A1)))))
        (a!14 (or (= E1 0)
                  (not (Proc54 F1 F G1))
                  (not (Proc5 F1 F D1 G1 H G))
                  (not (and (= B1 H) (= A1 G)))
                  (not (Proc53 A1 F B1 G1))
                  (= G1 0)
                  (not (and (= Z B1) (= V A1)))))
        (a!15 (or (= E1 0)
                  (not (Proc9 F1 F D1 G1 E))
                  (not (and (= B1 E) (= A1 F1)))
                  (not (Proc53 A1 F B1 G1))
                  (= G1 0)
                  (not (and (= Z B1) (= V A1)))))
        (a!16 (or (not (Proc46 F1 F D))
                  (not (and (= B1 D) (= A1 F1)))
                  (not (Proc53 A1 F B1 G1))
                  (= G1 0)
                  (not (and (= Z B1) (= V A1)))))
        (a!17 (or (= E1 0)
                  (not (Proc46 F1 F C))
                  (not (and (= B1 C) (= A1 F1)))
                  (not (Proc53 A1 F B1 G1))
                  (= G1 0)
                  (not (and (= Z B1) (= V A1)))))
        (a!18 (or (not (= B 1))
                  (= B 0)
                  (= E1 0)
                  (not (Proc46 F1 F C))
                  (not (and (= B1 C) (= A1 F1)))
                  (not (Proc53 A1 F B1 G1))
                  (= G1 0)
                  (not (and (= Z B1) (= V A1))))))
  (let ((a!19 (and (or (= E1 0) (and a!17 a!18))
                   (or (not (= A 1)) (= A 0) (= E1 0) (and a!17 a!18)))))
  (let ((a!20 (or (not F)
                  (= G1 0)
                  (not (Proc51 F1 F G1))
                  (= E1 0)
                  (not (Proc52 F1 F))
                  (and a!1
                       a!2
                       a!3
                       a!4
                       a!5
                       a!6
                       a!7
                       a!8
                       a!9
                       a!10
                       a!11
                       a!12
                       a!13
                       a!14
                       a!15
                       a!16
                       (or (= E1 0) a!19)))))
    (=> (not a!20) (Proc55 F1 F D1 G1 Z V)))))))
(assert (forall ((A Int) (B Int) (C Int) (D Int) (F Bool))
  (let ((a!1 (not (or (not F)
                      (not (Proc56 D F))
                      (not (Proc46 D F C))
                      (not (Proc57 D F))))))
    (=> a!1 (Proc58 D F B A)))))
(assert (forall ((A Int) (B Int) (F Bool))
  (let ((a!1 (not (or (not F) (not (Proc16 B F A))))))
    (=> a!1 (Proc59 B F A)))))
(assert (forall ((A Int) (B Int) (C Int) (F Bool))
  (=> (not (or (not F) (= C 0) (= B 0))) (Proc54 A F C))))
(assert (forall ((A Int) (B Int) (F Bool))
  (=> (not (or (not F) (= B 0))) (Proc51 A F B))))
(assert (forall ((A Int) (F Bool)) (=> F (Proc0 A F))))
(assert (forall ((A Int)
         (B Int)
         (C Int)
         (D Int)
         (E Int)
         (F Bool)
         (G Int)
         (H Int)
         (I Int)
         (J Int)
         (K Int)
         (L Int)
         (M Int)
         (N Int)
         (O Int)
         (P Int)
         (Q Int)
         (R Int)
         (S Int)
         (T Int)
         (U Int)
         (V Int)
         (Z Int)
         (A1 Int)
         (B1 Int)
         (C1 Int)
         (D1 Int)
         (E1 Int)
         (F1 Int)
         (G1 Int)
         (H1 Int)
         (I1 Int)
         (J1 Int)
         (K1 Int)
         (L1 Int)
         (M1 Int)
         (N1 Int)
         (O1 Int)
         (P1 Int)
         (Q1 Int))
  (let ((a!1 (and (not (<= O1 (+ 12 Q1))) (not (<= O1 P1))))
        (a!2 (or (not (and (= N1 0) (= C1 D1))) (not (= B1 C1))))
        (a!3 (or (= M1 0)
                 (not (Proc60 D1 F))
                 (not (and (Proc58 D1 F R Q) (= C1 D1)))
                 (not (= B1 C1))))
        (a!4 (or (not (and (= M1 0) (= C1 D1))) (not (= B1 C1))))
        (a!5 (or (not (and (Proc59 D1 F A) (= C1 D1))) (not (= B1 C1)))))
  (let ((a!6 (and (or (= N1 0)
                      (not (Proc60 D1 F))
                      (not (Proc55 D1 F V U T S))
                      (not (= C1 S))
                      (not (= B1 C1)))
                  a!2
                  a!3
                  a!4
                  (or (not (Proc1 D1 F P O N M))
                      (not (= C1 D1))
                      (not (= B1 C1)))
                  (or (not (= C1 D1)) (not (= B1 C1)))
                  (or (not (Proc18 D1 F L K J)) (not (= C1 D1)) (not (= B1 C1)))
                  (or (not (Proc15 D1 F I Q1 H G))
                      (not (= C1 G))
                      (not (= B1 C1)))
                  (or (not (Proc50 D1 F E D C B))
                      (not (= C1 B))
                      (not (= B1 C1)))
                  a!5)))
  (let ((a!7 (and (or (not (= C1 D1)) (not (= B1 C1)))
                  (or (not (Proc42 D1 F A1)) (not (Proc39 D1 F Z)) a!6))))
  (let ((a!8 (not (or (not F)
                      (not (= Q1 P1))
                      (not a!1)
                      (not (Proc37 O1 F N1))
                      (not (Proc44 O1 F M1))
                      (not (Proc38 O1 F L1))
                      (not (Proc43 O1 F K1))
                      (not (Proc36 O1 F J1))
                      (not (Proc40 O1 F I1))
                      (not (Proc47 O1 F H1))
                      (not (Proc45 O1 F G1))
                      (not (Proc35 O1 F F1))
                      (not (Proc41 O1 F E1 D1))
                      a!7))))
    (=> a!8 (Proc33 P1 F B1))))))))
(assert (forall ((A Int) (F Bool)) (=> F (Proc48 A F))))
(assert (forall ((A Int) (F Bool)) (=> F (Proc49 A F))))
(assert (forall ((A Int) (F Bool)) (=> F (Proc52 A F))))
(assert (forall ((A Int) (B Int) (C Int) (F Bool)) (=> F (Proc53 C F B A))))
(assert (forall ((A Int) (F Bool)) (=> F (Proc60 A F))))
(assert (forall ((A Int) (F Bool)) (=> F (Proc56 A F))))
(assert (forall ((A Int) (F Bool)) (=> F (Proc57 A F))))
(assert (forall ((A Int)
         (B Int)
         (C Int)
         (D Int)
         (E Int)
         (F Bool)
         (G Int)
         (H Int)
         (I Int)
         (J Int)
         (K Int)
         (L Int)
         (M Int)
         (N Int)
         (O Int)
         (P Int)
         (Q Int)
         (R Int)
         (S Int)
         (T Int)
         (U Int)
         (V Int)
         (Z Int)
         (A1 Int)
         (B1 Int)
         (C1 Int)
         (D1 Int)
         (E1 Int)
         (F1 Int)
         (G1 Int)
         (H1 Int)
         (I1 Int)
         (J1 Int)
         (K1 Int)
         (L1 Int)
         (M1 Int)
         (N1 Int)
         (O1 Int)
         (P1 Int)
         (Q1 Int)
         (R1 Int)
         (S1 Int)
         (T1 Int)
         (U1 Int)
         (V1 Int)
         (W1 Int)
         (X1 Int)
         (Y1 Int)
         (Z1 Int)
         (A2 Int)
         (B2 Int))
  (let ((a!1 (and (= B2 A2)
                  (not (<= Z1 (+ 4 B2)))
                  (not (<= Z1 A2))
                  (= Y1 Z1)
                  (not (<= X1 (+ 332 Y1)))
                  (not (<= X1 Z1))
                  (= W1 X1)
                  (not (<= V1 (+ 4 W1)))))
        (a!2 (and (not (<= V1 X1))
                  (= U1 V1)
                  (not (<= T1 (+ 536 U1)))
                  (not (<= T1 V1))
                  (= S1 T1)
                  (not (<= R1 (+ 240 S1)))
                  (not (<= R1 T1))
                  (= Q1 R1)
                  (not (<= P1 (+ 240 Q1)))
                  (not (<= P1 R1))
                  (= O1 P1)
                  (not (<= N1 (+ 240 O1)))
                  (not (<= N1 P1))
                  (= M1 N1)
                  (not (<= L1 (+ 4 M1)))
                  (not (<= L1 N1))
                  (= K1 L1)
                  (not (<= J1 (+ 536 K1)))
                  (not (<= J1 L1))
                  (= I1 J1)
                  (not (<= H1 (+ 332 I1)))
                  (not (<= H1 J1))
                  (= G1 H1)
                  (not (<= F1 (+ 240 G1)))
                  (not (<= F1 H1))
                  (= E1 F1)
                  (not (<= D1 (+ 240 E1)))
                  (not (<= D1 F1))
                  (= C1 D1)
                  (not (<= B1 (+ 332 C1)))
                  (not (<= B1 D1))
                  (= A1 B1)
                  (not (<= Z (+ 4 A1)))
                  (not (<= Z B1))
                  (= V Z)
                  (not (<= U (+ 68 V)))
                  (not (<= U Z))
                  (= T U)
                  (not (<= S (+ 240 T)))
                  (not (<= S U))
                  (= R S)
                  (not (<= Q (+ 240 R)))
                  (not (<= Q S))
                  (= P Q)
                  (not (<= O (+ 240 P)))
                  (not (<= O Q))
                  (= N O)
                  (not (<= M (+ 240 N)))
                  (not (<= M O))
                  (= L M)
                  (not (<= K (+ 240 L)))
                  (not (<= K M))
                  (= J K)
                  (not (<= I (+ 40 J)))
                  (not (<= I K))
                  (= H I)
                  (not (<= G (+ 332 H)))
                  (not (<= G I))
                  (= E G)
                  (not (<= D (+ 4 E)))
                  (not (<= D G))
                  (= C D)
                  (not (<= B (+ 40 C)))
                  (not (<= B D)))))
  (let ((a!3 (not (or (not F) (not a!1) (not a!2) (not (= A B))))))
    (=> a!3 (Proc32 A2 F A))))))
(assert (forall ((A Int) (B Int) (C Int) (D Int) (E Int) (F Bool) (W Bool) (X Bool))
  (let ((a!1 (or (not X) (not (and (Proc34 E true D W C) (not W))))))
    (=> (not a!1) (Proc61 E X B F A)))))
(assert (let ((a!1 (exists ((V0 Int) (V1 Bool) (V2 Int) (V3 Bool) (V4 Int))
             (not (=> (and (Proc61 V0 V1 V2 V3 V4) (not false)) false)))))
  (not a!1)))

(check-sat)
